(set-info :source |printed by MathSAT|)
(declare-fun .x.14 () Int)
(declare-fun .x.15 () Int)
(declare-fun main@%.0.i_0_0 () Int)
(declare-fun .x.16 () Int)
(declare-fun main@%_2_0_0 () Int)
(declare-fun main@%_2_1 () Int)
(declare-fun main@%assume.flag.0_0_0 () Bool)
(declare-fun .x.17 () Bool)
(declare-fun main@%_5_0_0 () Int)
(declare-fun main@%_5_1 () Int)
(declare-fun main@%shadow.mem.3_0_0 () (Array Int Int))
(declare-fun .x.18 () (Array Int Int))
(declare-fun main@%_4_0_0 () Bool)
(declare-fun main@%_4_1 () Bool)
(declare-fun main@%.2.i1_0_0 () Int)
(declare-fun .x.19 () Int)
(declare-fun main@%shadow.mem.2_0_0 () (Array Int Int))
(declare-fun .x.20 () (Array Int Int))
(declare-fun main@%_3_0_0 () Bool)
(declare-fun main@%_3_1 () Bool)
(declare-fun main@%.1.i2_0_0 () Int)
(declare-fun .x.21 () Int)
(declare-fun main@%shadow.mem.1_0_0 () (Array Int Int))
(declare-fun .x.22 () (Array Int Int))
(declare-fun main@%.01.i6_0_0 () Int)
(declare-fun main@%.01.i6_2 () Int)
(declare-fun main@%shadow.mem.0_0_0 () (Array Int Int))
(declare-fun main@%shadow.mem.0_2 () (Array Int Int))
(declare-fun @nd_0_0 () Int)
(declare-fun .x.23 () Int)
(define-fun .def_8 () Int (! .x.14 :next |.x.15|))
(define-fun .def_10 () Int (! main@%.0.i_0_0 :next |.x.16|))
(define-fun .def_12 () Int (! main@%_2_0_0 :next |main@%_2_1|))
(define-fun .def_14 () Bool (! main@%assume.flag.0_0_0 :next |.x.17|))
(define-fun .def_16 () Int (! main@%_5_0_0 :next |main@%_5_1|))
(define-fun .def_18 () (Array Int Int) (! main@%shadow.mem.3_0_0 :next |.x.18|))
(define-fun .def_20 () Bool (! main@%_4_0_0 :next |main@%_4_1|))
(define-fun .def_22 () Int (! main@%.2.i1_0_0 :next |.x.19|))
(define-fun .def_24 () (Array Int Int) (! main@%shadow.mem.2_0_0 :next |.x.20|))
(define-fun .def_26 () Bool (! main@%_3_0_0 :next |main@%_3_1|))
(define-fun .def_28 () Int (! main@%.1.i2_0_0 :next |.x.21|))
(define-fun .def_30 () (Array Int Int) (! main@%shadow.mem.1_0_0 :next |.x.22|))
(define-fun .def_32 () Int (! main@%.01.i6_0_0 :next |main@%.01.i6_2|))
(define-fun .def_34 () (Array Int Int) (! main@%shadow.mem.0_0_0 :next |main@%shadow.mem.0_2|))
(define-fun .def_36 () Int (! @nd_0_0 :next |.x.23|))
(define-fun .def_306 () Bool (! (= .def_8 0) :init true))
(define-fun .def_321 () Bool (= .def_36 .x.23))
(define-fun .def_303 () Bool (<= main@%_5_1 0))
(define-fun .def_304 () Bool (not .def_303))
(define-fun .def_299 () Bool (<= main@%_2_1 0))
(define-fun .def_300 () Bool (not .def_299))
(define-fun .def_301 () Bool (= main@%_3_1 .def_300))
(define-fun .def_298 () Bool (= main@%_4_1 main@%_3_1))
(define-fun .def_302 () Bool (and .def_298 .def_301))
(define-fun .def_305 () Bool (and .def_302 .def_304))
(define-fun .def_307 () Bool (and .def_305 .def_306))
(define-fun .def_295 () Bool (= main@%.01.i6_2 0))
(define-fun .def_264 () Bool (= .x.15 1))
(define-fun .def_291 () Bool (and main@%_3_1 .def_264))
(define-fun .def_38 () Bool (= .def_10 .x.16))
(define-fun .def_292 () Bool (and .def_38 .def_291))
(define-fun .def_40 () Bool (= .def_14 .x.17))
(define-fun .def_293 () Bool (and .def_40 .def_292))
(define-fun .def_42 () Bool (= .def_18 .x.18))
(define-fun .def_294 () Bool (and .def_42 .def_293))
(define-fun .def_296 () Bool (and .def_294 .def_295))
(define-fun .def_285 () Bool (= .x.17 main@%_4_1))
(define-fun .def_118 () Bool (= .x.16 0))
(define-fun .def_286 () Bool (and .def_118 .def_285))
(define-fun .def_284 () Bool (not main@%_3_1))
(define-fun .def_287 () Bool (and .def_284 .def_286))
(define-fun .def_91 () Bool (= .x.15 4))
(define-fun .def_288 () Bool (and .def_91 .def_287))
(define-fun .def_52 () Bool (= .def_32 main@%.01.i6_2))
(define-fun .def_289 () Bool (and .def_52 .def_288))
(define-fun .def_54 () Bool (= .def_34 main@%shadow.mem.0_2))
(define-fun .def_290 () Bool (and .def_54 .def_289))
(define-fun .def_297 () Bool (or .def_290 .def_296))
(define-fun .def_308 () Bool (and .def_297 .def_307))
(define-fun .def_227 () Int (* (- 1) .def_32))
(define-fun .def_228 () Int (+ .def_12 .def_227))
(define-fun .def_229 () Bool (<= .def_228 1))
(define-fun .def_275 () Bool (not .def_229))
(define-fun .def_271 () Int (* (- 1) main@%.01.i6_2))
(define-fun .def_272 () Int (+ .def_32 .def_271))
(define-fun .def_273 () Bool (= .def_272 (- 1)))
(define-fun .def_232 () Int (+ .def_16 .def_32))
(define-fun .def_245 () (Array Int Int) (store .def_34 .def_232 42))
(define-fun .def_268 () Bool (= main@%shadow.mem.0_2 .def_245))
(define-fun .def_265 () Bool (and .def_38 .def_264))
(define-fun .def_266 () Bool (and .def_40 .def_265))
(define-fun .def_267 () Bool (and .def_42 .def_266))
(define-fun .def_269 () Bool (and .def_267 .def_268))
(define-fun .def_274 () Bool (and .def_269 .def_273))
(define-fun .def_276 () Bool (and .def_274 .def_275))
(define-fun .def_57 () Bool (<= .def_16 0))
(define-fun .def_58 () Bool (not .def_57))
(define-fun .def_277 () Bool (and .def_58 .def_276))
(define-fun .def_233 () Bool (<= .def_232 0))
(define-fun .def_234 () Bool (not .def_233))
(define-fun .def_235 () Bool (or .def_57 .def_234))
(define-fun .def_278 () Bool (and .def_235 .def_277))
(define-fun .def_237 () Bool (= .def_8 1))
(define-fun .def_279 () Bool (and .def_237 .def_278))
(define-fun .def_60 () Bool (= .def_12 main@%_2_1))
(define-fun .def_280 () Bool (and .def_60 .def_279))
(define-fun .def_62 () Bool (= .def_16 main@%_5_1))
(define-fun .def_281 () Bool (and .def_62 .def_280))
(define-fun .def_64 () Bool (= .def_20 main@%_4_1))
(define-fun .def_282 () Bool (and .def_64 .def_281))
(define-fun .def_66 () Bool (= .def_26 main@%_3_1))
(define-fun .def_283 () Bool (and .def_66 .def_282))
(define-fun .def_309 () Bool (or .def_283 .def_308))
(define-fun .def_50 () Bool (= .def_30 .x.22))
(define-fun .def_48 () Bool (= .def_28 .x.21))
(define-fun .def_222 () Bool (and .def_48 .def_50))
(define-fun .def_310 () Bool (and .def_222 .def_309))
(define-fun .def_261 () Bool (= .x.21 0))
(define-fun .def_259 () Bool (= .x.22 .def_245))
(define-fun .def_183 () Bool (and .def_26 .def_38))
(define-fun .def_184 () Bool (and .def_40 .def_183))
(define-fun .def_185 () Bool (and .def_42 .def_184))
(define-fun .def_249 () Bool (and .def_52 .def_185))
(define-fun .def_250 () Bool (and .def_54 .def_249))
(define-fun .def_251 () Bool (and .def_229 .def_250))
(define-fun .def_252 () Bool (and .def_58 .def_251))
(define-fun .def_253 () Bool (and .def_235 .def_252))
(define-fun .def_254 () Bool (and .def_237 .def_253))
(define-fun .def_255 () Bool (and .def_60 .def_254))
(define-fun .def_256 () Bool (and .def_62 .def_255))
(define-fun .def_257 () Bool (and .def_64 .def_256))
(define-fun .def_258 () Bool (and .def_66 .def_257))
(define-fun .def_260 () Bool (and .def_258 .def_259))
(define-fun .def_262 () Bool (and .def_260 .def_261))
(define-fun .def_210 () Bool (= .x.15 2))
(define-fun .def_263 () Bool (and .def_210 .def_262))
(define-fun .def_311 () Bool (or .def_263 .def_310))
(define-fun .def_246 () Bool (= .x.18 .def_245))
(define-fun .def_223 () Bool (and .def_118 .def_222))
(define-fun .def_224 () Bool (and .def_91 .def_223))
(define-fun .def_225 () Bool (and .def_52 .def_224))
(define-fun .def_226 () Bool (and .def_54 .def_225))
(define-fun .def_230 () Bool (and .def_226 .def_229))
(define-fun .def_231 () Bool (and .def_58 .def_230))
(define-fun .def_236 () Bool (and .def_231 .def_235))
(define-fun .def_238 () Bool (and .def_236 .def_237))
(define-fun .def_239 () Bool (and .def_60 .def_238))
(define-fun .def_240 () Bool (and .def_62 .def_239))
(define-fun .def_241 () Bool (and .def_64 .def_240))
(define-fun .def_242 () Bool (and .def_66 .def_241))
(define-fun .def_128 () Bool (= .x.17 .def_20))
(define-fun .def_243 () Bool (and .def_128 .def_242))
(define-fun .def_247 () Bool (and .def_243 .def_246))
(define-fun .def_165 () Bool (not .def_26))
(define-fun .def_248 () Bool (and .def_165 .def_247))
(define-fun .def_312 () Bool (or .def_248 .def_311))
(define-fun .def_167 () Int (* (- 1) .def_28))
(define-fun .def_168 () Int (+ .def_12 .def_167))
(define-fun .def_169 () Bool (<= .def_168 1))
(define-fun .def_218 () Bool (not .def_169))
(define-fun .def_214 () Int (* (- 1) .x.21))
(define-fun .def_215 () Int (+ .def_28 .def_214))
(define-fun .def_216 () Bool (= .def_215 (- 1)))
(define-fun .def_171 () Int (+ .def_16 .def_28))
(define-fun .def_180 () (Array Int Int) (store .def_30 .def_171 43))
(define-fun .def_212 () Bool (= .x.22 .def_180))
(define-fun .def_142 () Bool (and .def_38 .def_40))
(define-fun .def_143 () Bool (and .def_42 .def_142))
(define-fun .def_203 () Bool (and .def_52 .def_143))
(define-fun .def_204 () Bool (and .def_54 .def_203))
(define-fun .def_205 () Bool (and .def_58 .def_204))
(define-fun .def_206 () Bool (and .def_60 .def_205))
(define-fun .def_207 () Bool (and .def_62 .def_206))
(define-fun .def_208 () Bool (and .def_64 .def_207))
(define-fun .def_209 () Bool (and .def_66 .def_208))
(define-fun .def_211 () Bool (and .def_209 .def_210))
(define-fun .def_213 () Bool (and .def_211 .def_212))
(define-fun .def_217 () Bool (and .def_213 .def_216))
(define-fun .def_219 () Bool (and .def_217 .def_218))
(define-fun .def_172 () Bool (<= .def_171 0))
(define-fun .def_173 () Bool (not .def_172))
(define-fun .def_174 () Bool (or .def_57 .def_173))
(define-fun .def_220 () Bool (and .def_174 .def_219))
(define-fun .def_177 () Bool (= .def_8 2))
(define-fun .def_221 () Bool (and .def_177 .def_220))
(define-fun .def_313 () Bool (or .def_221 .def_312))
(define-fun .def_46 () Bool (= .def_24 .x.20))
(define-fun .def_44 () Bool (= .def_22 .x.19))
(define-fun .def_115 () Bool (and .def_44 .def_46))
(define-fun .def_314 () Bool (and .def_115 .def_313))
(define-fun .def_200 () Bool (= .x.19 0))
(define-fun .def_198 () Bool (= .x.20 .def_180))
(define-fun .def_186 () Bool (and .def_48 .def_185))
(define-fun .def_187 () Bool (and .def_50 .def_186))
(define-fun .def_188 () Bool (and .def_52 .def_187))
(define-fun .def_189 () Bool (and .def_54 .def_188))
(define-fun .def_190 () Bool (and .def_58 .def_189))
(define-fun .def_191 () Bool (and .def_60 .def_190))
(define-fun .def_192 () Bool (and .def_62 .def_191))
(define-fun .def_193 () Bool (and .def_64 .def_192))
(define-fun .def_194 () Bool (and .def_66 .def_193))
(define-fun .def_195 () Bool (and .def_169 .def_194))
(define-fun .def_196 () Bool (and .def_174 .def_195))
(define-fun .def_197 () Bool (and .def_177 .def_196))
(define-fun .def_199 () Bool (and .def_197 .def_198))
(define-fun .def_201 () Bool (and .def_199 .def_200))
(define-fun .def_153 () Bool (= .x.15 3))
(define-fun .def_202 () Bool (and .def_153 .def_201))
(define-fun .def_315 () Bool (or .def_202 .def_314))
(define-fun .def_181 () Bool (= .x.18 .def_180))
(define-fun .def_116 () Bool (and .def_48 .def_115))
(define-fun .def_117 () Bool (and .def_50 .def_116))
(define-fun .def_119 () Bool (and .def_117 .def_118))
(define-fun .def_120 () Bool (and .def_91 .def_119))
(define-fun .def_121 () Bool (and .def_52 .def_120))
(define-fun .def_122 () Bool (and .def_54 .def_121))
(define-fun .def_123 () Bool (and .def_58 .def_122))
(define-fun .def_124 () Bool (and .def_60 .def_123))
(define-fun .def_125 () Bool (and .def_62 .def_124))
(define-fun .def_126 () Bool (and .def_64 .def_125))
(define-fun .def_127 () Bool (and .def_66 .def_126))
(define-fun .def_129 () Bool (and .def_127 .def_128))
(define-fun .def_166 () Bool (and .def_129 .def_165))
(define-fun .def_170 () Bool (and .def_166 .def_169))
(define-fun .def_175 () Bool (and .def_170 .def_174))
(define-fun .def_178 () Bool (and .def_175 .def_177))
(define-fun .def_182 () Bool (and .def_178 .def_181))
(define-fun .def_316 () Bool (or .def_182 .def_315))
(define-fun .def_112 () Int (* (- 1) .def_22))
(define-fun .def_113 () Int (+ .def_12 .def_112))
(define-fun .def_114 () Bool (<= .def_113 1))
(define-fun .def_161 () Bool (not .def_114))
(define-fun .def_157 () Int (* (- 1) .x.19))
(define-fun .def_158 () Int (+ .def_22 .def_157))
(define-fun .def_159 () Bool (= .def_158 (- 1)))
(define-fun .def_131 () Int (+ .def_16 .def_22))
(define-fun .def_139 () (Array Int Int) (store .def_24 .def_131 44))
(define-fun .def_155 () Bool (= .x.20 .def_139))
(define-fun .def_144 () Bool (and .def_48 .def_143))
(define-fun .def_145 () Bool (and .def_50 .def_144))
(define-fun .def_146 () Bool (and .def_52 .def_145))
(define-fun .def_147 () Bool (and .def_54 .def_146))
(define-fun .def_148 () Bool (and .def_58 .def_147))
(define-fun .def_149 () Bool (and .def_60 .def_148))
(define-fun .def_150 () Bool (and .def_62 .def_149))
(define-fun .def_151 () Bool (and .def_64 .def_150))
(define-fun .def_152 () Bool (and .def_66 .def_151))
(define-fun .def_154 () Bool (and .def_152 .def_153))
(define-fun .def_156 () Bool (and .def_154 .def_155))
(define-fun .def_160 () Bool (and .def_156 .def_159))
(define-fun .def_162 () Bool (and .def_160 .def_161))
(define-fun .def_132 () Bool (<= .def_131 0))
(define-fun .def_133 () Bool (not .def_132))
(define-fun .def_134 () Bool (or .def_57 .def_133))
(define-fun .def_163 () Bool (and .def_134 .def_162))
(define-fun .def_137 () Bool (= .def_8 3))
(define-fun .def_164 () Bool (and .def_137 .def_163))
(define-fun .def_317 () Bool (or .def_164 .def_316))
(define-fun .def_140 () Bool (= .x.18 .def_139))
(define-fun .def_130 () Bool (and .def_114 .def_129))
(define-fun .def_135 () Bool (and .def_130 .def_134))
(define-fun .def_138 () Bool (and .def_135 .def_137))
(define-fun .def_141 () Bool (and .def_138 .def_140))
(define-fun .def_318 () Bool (or .def_141 .def_317))
(define-fun .def_104 () Int (* (- 1) .x.16))
(define-fun .def_105 () Int (+ .def_10 .def_104))
(define-fun .def_106 () Bool (= .def_105 (- 1)))
(define-fun .def_68 () Bool (<= .def_12 .def_10))
(define-fun .def_69 () Bool (not .def_68))
(define-fun .def_100 () Bool (and .def_14 .def_69))
(define-fun .def_101 () Bool (= .x.17 .def_100))
(define-fun .def_87 () Bool (and .def_42 .def_44))
(define-fun .def_88 () Bool (and .def_46 .def_87))
(define-fun .def_89 () Bool (and .def_48 .def_88))
(define-fun .def_90 () Bool (and .def_50 .def_89))
(define-fun .def_92 () Bool (and .def_90 .def_91))
(define-fun .def_93 () Bool (and .def_52 .def_92))
(define-fun .def_94 () Bool (and .def_54 .def_93))
(define-fun .def_95 () Bool (and .def_58 .def_94))
(define-fun .def_96 () Bool (and .def_60 .def_95))
(define-fun .def_97 () Bool (and .def_62 .def_96))
(define-fun .def_98 () Bool (and .def_64 .def_97))
(define-fun .def_99 () Bool (and .def_66 .def_98))
(define-fun .def_102 () Bool (and .def_99 .def_101))
(define-fun .def_107 () Bool (and .def_102 .def_106))
(define-fun .def_71 () Int (+ .def_10 .def_16))
(define-fun .def_80 () Int (select .def_18 .def_71))
(define-fun .def_81 () Bool (= .def_80 44))
(define-fun .def_108 () Bool (and .def_81 .def_107))
(define-fun .def_72 () Bool (<= .def_71 0))
(define-fun .def_73 () Bool (not .def_72))
(define-fun .def_74 () Bool (or .def_57 .def_73))
(define-fun .def_109 () Bool (and .def_74 .def_108))
(define-fun .def_77 () Bool (= .def_8 4))
(define-fun .def_110 () Bool (and .def_77 .def_109))
(define-fun .def_319 () Bool (or .def_110 .def_318))
(define-fun .def_85 () Bool (= .x.15 5))
(define-fun .def_82 () Bool (not .def_81))
(define-fun .def_39 () Bool (and .def_14 .def_38))
(define-fun .def_41 () Bool (and .def_39 .def_40))
(define-fun .def_43 () Bool (and .def_41 .def_42))
(define-fun .def_45 () Bool (and .def_43 .def_44))
(define-fun .def_47 () Bool (and .def_45 .def_46))
(define-fun .def_49 () Bool (and .def_47 .def_48))
(define-fun .def_51 () Bool (and .def_49 .def_50))
(define-fun .def_53 () Bool (and .def_51 .def_52))
(define-fun .def_55 () Bool (and .def_53 .def_54))
(define-fun .def_59 () Bool (and .def_55 .def_58))
(define-fun .def_61 () Bool (and .def_59 .def_60))
(define-fun .def_63 () Bool (and .def_61 .def_62))
(define-fun .def_65 () Bool (and .def_63 .def_64))
(define-fun .def_67 () Bool (and .def_65 .def_66))
(define-fun .def_70 () Bool (and .def_67 .def_69))
(define-fun .def_75 () Bool (and .def_70 .def_74))
(define-fun .def_78 () Bool (and .def_75 .def_77))
(define-fun .def_83 () Bool (and .def_78 .def_82))
(define-fun .def_86 () Bool (and .def_83 .def_85))
(define-fun .def_320 () Bool (or .def_86 .def_319))
(define-fun .def_322 () Bool (! (and .def_320 .def_321) :trans true))
(define-fun .def_323 () Bool (= .def_8 5))
(define-fun .def_324 () Bool (! (not .def_323) :invar-property 0))
(assert true)
